
  32    4
  10   10   10   10

   0   0   0   0   0   2 2 24 
   4  10  10  10  10   1 3 
   9  10  10  10  10   1 4 
   6  10  10  10  10   1 5 
  10  10  10  10  10   1 6 
   6  10  10  10  10   1 7 
   1  10  10  10  10   1 8 
   9  10  10  10  10   2 21 9 
   7  10  10  10  10   2 17 10 
   7  10  10  10  10   1 11 
   2  10  10  10  10   1 12 
   4  10  10  10  10   1 13 
  10  10  10  10  10   2 30 14 
   9  10  10  10  10   2 29 15 
   9  10  10  10  10   1 16 
   5  10  10  10  10   1 18 
   5  10  10  10  10   1 18 
   3  10  10  10  10   1 19 
   3  10  10  10  10   1 20 
   6  10  10  10  10   1 22 
   1  10  10  10  10   2 29 25 
   4  10  10  10  10   1 23 
   1  10  10  10  10   1 25 
   1  10  10  10  10   3 31 29 28 
   8  10  10  10  10   1 26 
   1  10  10  10  10   1 27 
   1  10  10  10  10   1 28 
   7  10  10  10  10   1 32
   4  10  10  10  10   1 32
   8  10  10  10  10   1 32
   4  10  10  10  10   1 32
   0   0   0   0   0   0 
